NAME : local_9
TYPE : ATSP
DIMENSION : 11
EDGE_WEIGHT_TYPE : EXPLICIT
EDGE_WEIGHT_FORMAT : FULL_MATRIX
EDGE_WEIGHT_SECTION
0 720 1067 465 808 10000000 583 739 10000000 10000000 10000000 
0 0 709 932 10000000 823 423 760 859 596 10000000 
0 709 0 10000000 10000000 10000000 986 433 10000000 524 613 
0 932 10000000 0 389 10000000 645 10000000 10000000 10000000 10000000 
0 10000000 10000000 389 0 10000000 736 10000000 996 10000000 10000000 
0 823 10000000 10000000 10000000 0 865 10000000 261 730 10000000 
0 423 986 645 736 865 0 984 768 932 10000000 
0 760 433 10000000 10000000 10000000 984 0 10000000 869 868 
0 859 10000000 10000000 996 261 768 10000000 0 989 10000000 
0 596 524 10000000 10000000 730 932 869 997 0 932 
0 10000000 10000000 10000000 10000000 10000000 10000000 10000000 10000000 10000000 0 
EOF